<instance format="XCSP3" type="CSP">
  <variables>
    <array id="x" note="--- Variables ---" size="[3]">
      <domain for="x[0] x[2]"> 5 6 7 </domain>
      <domain for="x[1]"> 6 </domain>
    </array>
  </variables>
  <constraints>
    <sum>
      <list> x[] </list>
      <condition> (eq,18) </condition>
    </sum>
    <lex>
      <list> x[] </list>
      <list> x[2] x[1] x[0] </list>
      <operator> le </operator>
    </lex>
  </constraints>
</instance>
